SYSTEM = Silicon diamond
ENCUT = 450
ISPIN = 1
ISMEAR = 0
SIGMA = 0.05
EDIFF = 1E-5
IBRION = 2
NSW = 0
GGA = PE
